p cnf 14 64
-1 -7 -14 0
1 4 -6 0
-9 10 12 0
7 13 14 0
2 9 -12 0
3 4 -12 0
4 -8 -10 0
5 -11 12 0
-6 7 -10 0
3 -13 14 0
-6 -7 -12 0
1 -2 -4 0
-2 3 -4 0
-3 5 7 0
4 -6 -12 0
2 -3 7 0
7 -10 -11 0
3 -5 14 0
3 -7 14 0
-1 5 -12 0
-2 -9 10 0
2 12 -13 0
4 11 -14 0
1 2 -7 0
6 -9 14 0
-5 8 -11 0
1 3 -7 0
-1 3 9 0
1 -2 5 0
6 9 -13 0
-1 12 13 0
7 -13 14 0
10 11 -13 0
-3 11 14 0
-10 11 13 0
2 -8 -10 0
-8 9 14 0
5 10 -13 0
1 10 -14 0
-1 -4 9 0
2 3 9 0
7 11 14 0
-4 5 11 0
-4 -10 14 0
5 -10 -11 0
-2 -4 9 0
7 9 13 0
9 10 -13 0
-11 12 -14 0
-6 -9 -14 0
9 10 -11 0
1 -8 -12 0
3 -12 13 0
-3 4 6 0
-1 -13 14 0
-5 10 13 0
1 3 -10 0
-1 -2 -10 0
2 4 -8 0
1 -5 14 0
-2 -7 -14 0
5 9 11 0
1 -9 -13 0
-2 7 10 0
